webassembly/ejemplos_dzn/4/folder4_json_79.dzn
TERM = { '.', 's(2)', 'in_1', 'local_0', 'in_2', 's(1)', 's(0)', 'in_0'};
null = '.';
s = 4;
n = 8;
ndeps = 1;
max_registers_sz = 3;
NR = 0;
registers = [| |];
dependencies = [|'call[function_index(0)]_0', 'i32.load8_u_1'|];
GET_ENUM = { GET1, GET2, GET3};
SET_ENUM = { SET1, SET2, SET3};
TEE_ENUM = { TEE1, TEE2, TEE3};
N = 4;
OP = { 'i32.const_0', 'call[function_index(0)]_0', 'i32.load8_u_1', 'local.get_0' };
in_ops = [0, 3, 1, 0 ];
out_ops = [1, 1, 1, 1 ];
in1 = ['.', 'in_0', 's(0)', '.' ];
in2 = ['.', 'in_1', '.', '.' ];
in3 = ['.', 'in_2', '.', '.' ];
out1 = ['s(2)', 's(0)', 's(1)', 'local_0' ];
out2 = ['.', '.', '.', '.' ];
out3 = ['.', '.', '.', '.' ];
comm = [false, false, false, false ];
gas = [1, 1, 1, 1 ];
sz = [1, 1, 1, 1 ];
stor = [false, true, false, false ];
lb = [ 1, 1, 1, 1 ];
ub = [ 4, 4, 4, 4 ];
startstack = [ 'in_0', 'in_1', 'in_2', null, null, null, null, null ];
endstack = [ 'local_0', 's(2)', 's(1)', null, null, null, null, null ];
